Minimize
  0.07884 C16(3) + 0.21024 C17(3) + 0.15768 C18(3) + 0 C19(0) + 0 C20(0)
   + 0 C21(0) + 0 C22(0) + 0 C23(0) + 0 C24(0) + 0 C25(0) + 0 C26(0)
   + 0 C27(0) + 0 C28(0) + 0 C29(0) + 0 C30(0) + 2 B45(1) + B46(1)
   + 3.5 B47(1) + 1.5 B48(1) + B49(1) + 2 B50(1) + 2 B51(1) + 3 B52(1)
   + 0.0716727272727273 C69(3) + 0.1911272727272728 C70(3)
   + 0.1433454545454546 C71(3) + 0 C72(0) + 0 C73(0) + 0 C74(0) + 0 C75(0)
   + 0 C76(0) + 0 C77(0) + 0 C78(0) + 0 C79(0) + 0 C80(0) + 0 C81(0)
   + 0 C82(0) + 0 C83(0) + 1.818181818181818 B98(1)
   + 0.9090909090909091 B99(1) + 3.181818181818182 B100(1)
   + 1.363636363636364 B101(1) + 0.9090909090909091 B102(1)
   + 1.818181818181818 B103(1) + 1.818181818181818 B104(1)
   + 2.727272727272727 B105(1) + 0.0651570247933884 C122(3)
   + 0.1737520661157024 C123(3) + 0.1303140495867768 C124(3) + 0 C125(0)
   + 0 C126(0) + 0 C127(0) + 0 C128(0) + 0 C129(0) + 0 C130(0) + 0 C131(0)
   + 0 C132(0) + 0 C133(0) + 0 C134(0) + 0 C135(0) + 0 C136(0)
   + 1.652892561983471 B151(1) + 0.8264462809917354 B152(1)
   + 2.892561983471074 B153(1) + 1.239669421487603 B154(1)
   + 0.8264462809917354 B155(1) + 1.652892561983471 B156(1)
   + 1.652892561983471 B157(1) + 2.479338842975206 B158(1)
   + 0.0592336589030804 C175(3) + 0.1579564237415476 C176(3)
   + 0.1184673178061607 C177(3) + 0 C178(0) + 0 C179(0) + 0 C180(0)
   + 0 C181(0) + 0 C182(0) + 0 C183(0) + 0 C184(0) + 0 C185(0) + 0 C186(0)
   + 0 C187(0) + 0 C188(0) + 0 C189(0) + 1.502629601803155 B204(1)
   + 0.7513148009015775 B205(1) + 2.629601803155521 B206(1)
   + 1.126972201352366 B207(1) + 0.7513148009015775 B208(1)
   + 1.502629601803155 B209(1) + 1.502629601803155 B210(1)
   + 2.253944402704732 B211(1) + 0.0538487808209822 C228(3)
   + 0.1435967488559524 C229(3) + 0.1076975616419643 C230(3) + 0 C231(0)
   + 0 C232(0) + 0 C233(0) + 0 C234(0) + 0 C235(0) + 0 C236(0) + 0 C237(0)
   + 0 C238(0) + 0 C239(0) + 0 C240(0) + 0 C241(0) + 0 C242(0)
   + 1.366026910730141 B257(1) + 0.6830134553650705 B258(1)
   + 2.390547093777747 B259(1) + 1.024520183047606 B260(1)
   + 0.6830134553650705 B261(1) + 1.366026910730141 B262(1)
   + 1.366026910730141 B263(1) + 2.049040366095212 B264(1)
Subject To
 c0: C0(8) - C3(8) - C7(8) - C16(3) - C37(6) + C40(6) + C44(6) = -0
 c1: - C0(8) + C1(8) + C37(6) - C38(6) = -40
 c2: - C1(8) + C2(8) + C3(8) - C17(3) + C38(6) - C39(6) - C40(6) = -60
 c3: - C4(8) + C6(8) - C18(3) + C41(6) - C43(6) = -0
 c4: - C5(8) - C6(8) + C7(8) + C42(6) + C43(6) - C44(6) = -165
 c5: - C2(8) + C4(8) + C5(8) + C39(6) - C41(6) - C42(6) = -0
 c6: C53(8) - C56(8) - C60(8) - C69(3) - C90(6) + C93(6) + C97(6) = -0
 c7: - C53(8) + C54(8) + C90(6) - C91(6) = -40.4
 c8: - C54(8) + C55(8) + C56(8) - C70(3) + C91(6) - C92(6) - C93(6)
   = -60.6
 c9: - C57(8) + C59(8) - C71(3) + C94(6) - C96(6) = -0
 c10: - C58(8) - C59(8) + C60(8) + C95(6) + C96(6) - C97(6) = -166.65
 c11: - C55(8) + C57(8) + C58(8) + C92(6) - C94(6) - C95(6) = -0
 c12: C106(8) - C109(8) - C113(8) - C122(3) - C143(6) + C146(6) + C150(6)
   = -0
 c13: - C106(8) + C107(8) + C143(6) - C144(6) = -40.804
 c14: - C107(8) + C108(8) + C109(8) - C123(3) + C144(6) - C145(6) - C146(6)
   = -61.206
 c15: - C110(8) + C112(8) - C124(3) + C147(6) - C149(6) = -0
 c16: - C111(8) - C112(8) + C113(8) + C148(6) + C149(6) - C150(6)
   = -168.3165
 c17: - C108(8) + C110(8) + C111(8) + C145(6) - C147(6) - C148(6) = -0
 c18: C159(8) - C162(8) - C166(8) - C175(3) - C196(6) + C199(6) + C203(6)
   = -0
 c19: - C159(8) + C160(8) + C196(6) - C197(6) = -41.21204
 c20: - C160(8) + C161(8) + C162(8) - C176(3) + C197(6) - C198(6) - C199(6)
   = -61.81806000000001
 c21: - C163(8) + C165(8) - C177(3) + C200(6) - C202(6) = -0
 c22: - C164(8) - C165(8) + C166(8) + C201(6) + C202(6) - C203(6)
   = -169.999665
 c23: - C161(8) + C163(8) + C164(8) + C198(6) - C200(6) - C201(6) = -0
 c24: C212(8) - C215(8) - C219(8) - C228(3) - C249(6) + C252(6) + C256(6)
   = -0
 c25: - C212(8) + C213(8) + C249(6) - C250(6) = -41.6241604
 c26: - C213(8) + C214(8) + C215(8) - C229(3) + C250(6) - C251(6) - C252(6)
   = -62.4362406
 c27: - C216(8) + C218(8) - C230(3) + C253(6) - C255(6) = -0
 c28: - C217(8) - C218(8) + C219(8) + C254(6) + C255(6) - C256(6)
   = -171.69966165
 c29: - C214(8) + C216(8) + C217(8) + C251(6) - C253(6) - C254(6) = -0
 c30: B8(12) - B45(1) = 0
 c31: B9(12) - B46(1) = 0
 c32: B10(12) - B47(1) = 0
 c33: B11(12) - B48(1) = 0
 c34: B12(12) - B49(1) = 0
 c35: B13(12) - B50(1) = 0
 c36: B14(12) - B51(1) = 0
 c37: B15(12) - B52(1) = 0
 c38: - B8(12) + B61(12) - B98(1) = 0
 c39: - B9(12) + B62(12) - B99(1) = 0
 c40: - B10(12) + B63(12) - B100(1) = 0
 c41: - B11(12) + B64(12) - B101(1) = 0
 c42: - B12(12) + B65(12) - B102(1) = 0
 c43: - B13(12) + B66(12) - B103(1) = 0
 c44: - B14(12) + B67(12) - B104(1) = 0
 c45: - B15(12) + B68(12) - B105(1) = 0
 c46: - B61(12) + B114(12) - B151(1) = 0
 c47: - B62(12) + B115(12) - B152(1) = 0
 c48: - B63(12) + B116(12) - B153(1) = 0
 c49: - B64(12) + B117(12) - B154(1) = 0
 c50: - B65(12) + B118(12) - B155(1) = 0
 c51: - B66(12) + B119(12) - B156(1) = 0
 c52: - B67(12) + B120(12) - B157(1) = 0
 c53: - B68(12) + B121(12) - B158(1) = 0
 c54: - B114(12) + B167(12) - B204(1) = 0
 c55: - B115(12) + B168(12) - B205(1) = 0
 c56: - B116(12) + B169(12) - B206(1) = 0
 c57: - B117(12) + B170(12) - B207(1) = 0
 c58: - B118(12) + B171(12) - B208(1) = 0
 c59: - B119(12) + B172(12) - B209(1) = 0
 c60: - B120(12) + B173(12) - B210(1) = 0
 c61: - B121(12) + B174(12) - B211(1) = 0
 c62: - B167(12) + B220(10) - B257(1) = 0
 c63: - B168(12) + B221(10) - B258(1) = 0
 c64: - B169(12) + B222(10) - B259(1) = 0
 c65: - B170(12) + B223(10) - B260(1) = 0
 c66: - B171(12) + B224(10) - B261(1) = 0
 c67: - B172(12) + B225(10) - B262(1) = 0
 c68: - B173(12) + B226(10) - B263(1) = 0
 c69: - B174(12) + B227(10) - B264(1) = 0
 c70: - B8(12) <= 0
 c71: - B9(12) <= 0
 c72: - B10(12) <= 0
 c73: - B11(12) <= 0
 c74: - B12(12) <= 0
 c75: - B13(12) <= 0
 c76: - B14(12) <= 0
 c77: - B15(12) <= 0
 c78: B8(12) - B61(12) <= 0
 c79: B9(12) - B62(12) <= 0
 c80: B10(12) - B63(12) <= 0
 c81: B11(12) - B64(12) <= 0
 c82: B12(12) - B65(12) <= 0
 c83: B13(12) - B66(12) <= 0
 c84: B14(12) - B67(12) <= 0
 c85: B15(12) - B68(12) <= 0
 c86: B61(12) - B114(12) <= 0
 c87: B62(12) - B115(12) <= 0
 c88: B63(12) - B116(12) <= 0
 c89: B64(12) - B117(12) <= 0
 c90: B65(12) - B118(12) <= 0
 c91: B66(12) - B119(12) <= 0
 c92: B67(12) - B120(12) <= 0
 c93: B68(12) - B121(12) <= 0
 c94: B114(12) - B167(12) <= 0
 c95: B115(12) - B168(12) <= 0
 c96: B116(12) - B169(12) <= 0
 c97: B117(12) - B170(12) <= 0
 c98: B118(12) - B171(12) <= 0
 c99: B119(12) - B172(12) <= 0
 c100: B120(12) - B173(12) <= 0
 c101: B121(12) - B174(12) <= 0
 c102: B167(12) - B220(10) <= 0
 c103: B168(12) - B221(10) <= 0
 c104: B169(12) - B222(10) <= 0
 c105: B170(12) - B223(10) <= 0
 c106: B171(12) - B224(10) <= 0
 c107: B172(12) - B225(10) <= 0
 c108: B173(12) - B226(10) <= 0
 c109: B174(12) - B227(10) <= 0
 c110: C0(8) + 70000 B8(12) - 5 C31(6) + 5 C32(4) <= 70000
 c111: - C0(8) + 70000 B8(12) + 5 C31(6) - 5 C32(4) <= 70000
 c112: C1(8) + 70000 B9(12) - 10 C32(4) + 10 C33(6) <= 70000
 c113: - C1(8) + 70000 B9(12) + 10 C32(4) - 10 C33(6) <= 70000
 c114: C2(8) + 70000 B10(12) - 2.857142857142857 C33(6)
   + 2.857142857142857 C36(6) <= 70000
 c115: - C2(8) + 70000 B10(12) + 2.857142857142857 C33(6)
   - 2.857142857142857 C36(6) <= 70000
 c116: C3(8) + 70000 B11(12) + 6.666666666666667 C31(6)
   - 6.666666666666667 C33(6) <= 70000
 c117: - C3(8) + 70000 B11(12) - 6.666666666666667 C31(6)
   + 6.666666666666667 C33(6) <= 70000
 c118: C4(8) + 70000 B12(12) + 10 C34(4) - 10 C36(6) <= 70000
 c119: - C4(8) + 70000 B12(12) - 10 C34(4) + 10 C36(6) <= 70000
 c120: C5(8) + 70000 B13(12) + 5 C35(6) - 5 C36(6) <= 70000
 c121: - C5(8) + 70000 B13(12) - 5 C35(6) + 5 C36(6) <= 70000
 c122: C6(8) + 70000 B14(12) - 5 C34(4) + 5 C35(6) <= 70000
 c123: - C6(8) + 70000 B14(12) + 5 C34(4) - 5 C35(6) <= 70000
 c124: C7(8) + 70000 B15(12) + 3.333333333333333 C31(6)
   - 3.333333333333333 C35(6) <= 70000
 c125: - C7(8) + 70000 B15(12) - 3.333333333333333 C31(6)
   + 3.333333333333333 C35(6) <= 70000
 c126: C53(8) + 70000 B61(12) - 5 C84(6) + 5 C85(4) <= 70000
 c127: - C53(8) + 70000 B61(12) + 5 C84(6) - 5 C85(4) <= 70000
 c128: C54(8) + 70000 B62(12) - 10 C85(4) + 10 C86(6) <= 70000
 c129: - C54(8) + 70000 B62(12) + 10 C85(4) - 10 C86(6) <= 70000
 c130: C55(8) + 70000 B63(12) - 2.857142857142857 C86(6)
   + 2.857142857142857 C89(6) <= 70000
 c131: - C55(8) + 70000 B63(12) + 2.857142857142857 C86(6)
   - 2.857142857142857 C89(6) <= 70000
 c132: C56(8) + 70000 B64(12) + 6.666666666666667 C84(6)
   - 6.666666666666667 C86(6) <= 70000
 c133: - C56(8) + 70000 B64(12) - 6.666666666666667 C84(6)
   + 6.666666666666667 C86(6) <= 70000
 c134: C57(8) + 70000 B65(12) + 10 C87(4) - 10 C89(6) <= 70000
 c135: - C57(8) + 70000 B65(12) - 10 C87(4) + 10 C89(6) <= 70000
 c136: C58(8) + 70000 B66(12) + 5 C88(6) - 5 C89(6) <= 70000
 c137: - C58(8) + 70000 B66(12) - 5 C88(6) + 5 C89(6) <= 70000
 c138: C59(8) + 70000 B67(12) - 5 C87(4) + 5 C88(6) <= 70000
 c139: - C59(8) + 70000 B67(12) + 5 C87(4) - 5 C88(6) <= 70000
 c140: C60(8) + 70000 B68(12) + 3.333333333333333 C84(6)
   - 3.333333333333333 C88(6) <= 70000
 c141: - C60(8) + 70000 B68(12) - 3.333333333333333 C84(6)
   + 3.333333333333333 C88(6) <= 70000
 c142: C106(8) + 70000 B114(12) - 5 C137(6) + 5 C138(4) <= 70000
 c143: - C106(8) + 70000 B114(12) + 5 C137(6) - 5 C138(4) <= 70000
 c144: C107(8) + 70000 B115(12) - 10 C138(4) + 10 C139(6) <= 70000
 c145: - C107(8) + 70000 B115(12) + 10 C138(4) - 10 C139(6) <= 70000
 c146: C108(8) + 70000 B116(12) - 2.857142857142857 C139(6)
   + 2.857142857142857 C142(6) <= 70000
 c147: - C108(8) + 70000 B116(12) + 2.857142857142857 C139(6)
   - 2.857142857142857 C142(6) <= 70000
 c148: C109(8) + 70000 B117(12) + 6.666666666666667 C137(6)
   - 6.666666666666667 C139(6) <= 70000
 c149: - C109(8) + 70000 B117(12) - 6.666666666666667 C137(6)
   + 6.666666666666667 C139(6) <= 70000
 c150: C110(8) + 70000 B118(12) + 10 C140(4) - 10 C142(6) <= 70000
 c151: - C110(8) + 70000 B118(12) - 10 C140(4) + 10 C142(6) <= 70000
 c152: C111(8) + 70000 B119(12) + 5 C141(6) - 5 C142(6) <= 70000
 c153: - C111(8) + 70000 B119(12) - 5 C141(6) + 5 C142(6) <= 70000
 c154: C112(8) + 70000 B120(12) - 5 C140(4) + 5 C141(6) <= 70000
 c155: - C112(8) + 70000 B120(12) + 5 C140(4) - 5 C141(6) <= 70000
 c156: C113(8) + 70000 B121(12) + 3.333333333333333 C137(6)
   - 3.333333333333333 C141(6) <= 70000
 c157: - C113(8) + 70000 B121(12) - 3.333333333333333 C137(6)
   + 3.333333333333333 C141(6) <= 70000
 c158: C159(8) + 70000 B167(12) - 5 C190(6) + 5 C191(4) <= 70000
 c159: - C159(8) + 70000 B167(12) + 5 C190(6) - 5 C191(4) <= 70000
 c160: C160(8) + 70000 B168(12) - 10 C191(4) + 10 C192(6) <= 70000
 c161: - C160(8) + 70000 B168(12) + 10 C191(4) - 10 C192(6) <= 70000
 c162: C161(8) + 70000 B169(12) - 2.857142857142857 C192(6)
   + 2.857142857142857 C195(6) <= 70000
 c163: - C161(8) + 70000 B169(12) + 2.857142857142857 C192(6)
   - 2.857142857142857 C195(6) <= 70000
 c164: C162(8) + 70000 B170(12) + 6.666666666666667 C190(6)
   - 6.666666666666667 C192(6) <= 70000
 c165: - C162(8) + 70000 B170(12) - 6.666666666666667 C190(6)
   + 6.666666666666667 C192(6) <= 70000
 c166: C163(8) + 70000 B171(12) + 10 C193(4) - 10 C195(6) <= 70000
 c167: - C163(8) + 70000 B171(12) - 10 C193(4) + 10 C195(6) <= 70000
 c168: C164(8) + 70000 B172(12) + 5 C194(6) - 5 C195(6) <= 70000
 c169: - C164(8) + 70000 B172(12) - 5 C194(6) + 5 C195(6) <= 70000
 c170: C165(8) + 70000 B173(12) - 5 C193(4) + 5 C194(6) <= 70000
 c171: - C165(8) + 70000 B173(12) + 5 C193(4) - 5 C194(6) <= 70000
 c172: C166(8) + 70000 B174(12) + 3.333333333333333 C190(6)
   - 3.333333333333333 C194(6) <= 70000
 c173: - C166(8) + 70000 B174(12) - 3.333333333333333 C190(6)
   + 3.333333333333333 C194(6) <= 70000
 c174: C212(8) + 70000 B220(10) - 5 C243(6) + 5 C244(4) <= 70000
 c175: - C212(8) + 70000 B220(10) + 5 C243(6) - 5 C244(4) <= 70000
 c176: C213(8) + 70000 B221(10) - 10 C244(4) + 10 C245(6) <= 70000
 c177: - C213(8) + 70000 B221(10) + 10 C244(4) - 10 C245(6) <= 70000
 c178: C214(8) + 70000 B222(10) - 2.857142857142857 C245(6)
   + 2.857142857142857 C248(6) <= 70000
 c179: - C214(8) + 70000 B222(10) + 2.857142857142857 C245(6)
   - 2.857142857142857 C248(6) <= 70000
 c180: C215(8) + 70000 B223(10) + 6.666666666666667 C243(6)
   - 6.666666666666667 C245(6) <= 70000
 c181: - C215(8) + 70000 B223(10) - 6.666666666666667 C243(6)
   + 6.666666666666667 C245(6) <= 70000
 c182: C216(8) + 70000 B224(10) + 10 C246(4) - 10 C248(6) <= 70000
 c183: - C216(8) + 70000 B224(10) - 10 C246(4) + 10 C248(6) <= 70000
 c184: C217(8) + 70000 B225(10) + 5 C247(6) - 5 C248(6) <= 70000
 c185: - C217(8) + 70000 B225(10) - 5 C247(6) + 5 C248(6) <= 70000
 c186: C218(8) + 70000 B226(10) - 5 C246(4) + 5 C247(6) <= 70000
 c187: - C218(8) + 70000 B226(10) + 5 C246(4) - 5 C247(6) <= 70000
 c188: C219(8) + 70000 B227(10) + 3.333333333333333 C243(6)
   - 3.333333333333333 C247(6) <= 70000
 c189: - C219(8) + 70000 B227(10) - 3.333333333333333 C243(6)
   + 3.333333333333333 C247(6) <= 70000
 c190: C0(8) + 69850 B8(12) <= 70000
 c191: - C0(8) + 69850 B8(12) <= 70000
 c192: C1(8) + 69950 B9(12) <= 70000
 c193: - C1(8) + 69950 B9(12) <= 70000
 c194: C2(8) + 69945 B10(12) <= 70000
 c195: - C2(8) + 69945 B10(12) <= 70000
 c196: C3(8) + 69985 B11(12) <= 70000
 c197: - C3(8) + 69985 B11(12) <= 70000
 c198: C4(8) + 69880 B12(12) <= 70000
 c199: - C4(8) + 69880 B12(12) <= 70000
 c200: C5(8) + 69940 B13(12) <= 70000
 c201: - C5(8) + 69940 B13(12) <= 70000
 c202: C6(8) + 69930 B14(12) <= 70000
 c203: - C6(8) + 69930 B14(12) <= 70000
 c204: C7(8) + 69945 B15(12) <= 70000
 c205: - C7(8) + 69945 B15(12) <= 70000
 c206: C53(8) + 69850 B61(12) <= 70000
 c207: - C53(8) + 69850 B61(12) <= 70000
 c208: C54(8) + 69950 B62(12) <= 70000
 c209: - C54(8) + 69950 B62(12) <= 70000
 c210: C55(8) + 69945 B63(12) <= 70000
 c211: - C55(8) + 69945 B63(12) <= 70000
 c212: C56(8) + 69985 B64(12) <= 70000
 c213: - C56(8) + 69985 B64(12) <= 70000
 c214: C57(8) + 69880 B65(12) <= 70000
 c215: - C57(8) + 69880 B65(12) <= 70000
 c216: C58(8) + 69940 B66(12) <= 70000
 c217: - C58(8) + 69940 B66(12) <= 70000
 c218: C59(8) + 69930 B67(12) <= 70000
 c219: - C59(8) + 69930 B67(12) <= 70000
 c220: C60(8) + 69945 B68(12) <= 70000
 c221: - C60(8) + 69945 B68(12) <= 70000
 c222: C106(8) + 69850 B114(12) <= 70000
 c223: - C106(8) + 69850 B114(12) <= 70000
 c224: C107(8) + 69950 B115(12) <= 70000
 c225: - C107(8) + 69950 B115(12) <= 70000
 c226: C108(8) + 69945 B116(12) <= 70000
 c227: - C108(8) + 69945 B116(12) <= 70000
 c228: C109(8) + 69985 B117(12) <= 70000
 c229: - C109(8) + 69985 B117(12) <= 70000
 c230: C110(8) + 69880 B118(12) <= 70000
 c231: - C110(8) + 69880 B118(12) <= 70000
 c232: C111(8) + 69940 B119(12) <= 70000
 c233: - C111(8) + 69940 B119(12) <= 70000
 c234: C112(8) + 69930 B120(12) <= 70000
 c235: - C112(8) + 69930 B120(12) <= 70000
 c236: C113(8) + 69945 B121(12) <= 70000
 c237: - C113(8) + 69945 B121(12) <= 70000
 c238: C159(8) + 69850 B167(12) <= 70000
 c239: - C159(8) + 69850 B167(12) <= 70000
 c240: C160(8) + 69950 B168(12) <= 70000
 c241: - C160(8) + 69950 B168(12) <= 70000
 c242: C161(8) + 69945 B169(12) <= 70000
 c243: - C161(8) + 69945 B169(12) <= 70000
 c244: C162(8) + 69985 B170(12) <= 70000
 c245: - C162(8) + 69985 B170(12) <= 70000
 c246: C163(8) + 69880 B171(12) <= 70000
 c247: - C163(8) + 69880 B171(12) <= 70000
 c248: C164(8) + 69940 B172(12) <= 70000
 c249: - C164(8) + 69940 B172(12) <= 70000
 c250: C165(8) + 69930 B173(12) <= 70000
 c251: - C165(8) + 69930 B173(12) <= 70000
 c252: C166(8) + 69945 B174(12) <= 70000
 c253: - C166(8) + 69945 B174(12) <= 70000
 c254: C212(8) + 69850 B220(10) <= 70000
 c255: - C212(8) + 69850 B220(10) <= 70000
 c256: C213(8) + 69950 B221(10) <= 70000
 c257: - C213(8) + 69950 B221(10) <= 70000
 c258: C214(8) + 69945 B222(10) <= 70000
 c259: - C214(8) + 69945 B222(10) <= 70000
 c260: C215(8) + 69985 B223(10) <= 70000
 c261: - C215(8) + 69985 B223(10) <= 70000
 c262: C216(8) + 69880 B224(10) <= 70000
 c263: - C216(8) + 69880 B224(10) <= 70000
 c264: C217(8) + 69940 B225(10) <= 70000
 c265: - C217(8) + 69940 B225(10) <= 70000
 c266: C218(8) + 69930 B226(10) <= 70000
 c267: - C218(8) + 69930 B226(10) <= 70000
 c268: C219(8) + 69945 B227(10) <= 70000
 c269: - C219(8) + 69945 B227(10) <= 70000
 c270: C16(3) <= 150
 c271: - C16(3) <= -10
 c272: C17(3) <= 100
 c273: - C17(3) <= -0
 c274: C18(3) <= 200
 c275: - C18(3) <= -10
 c276: C69(3) <= 150
 c277: - C69(3) <= -10
 c278: C70(3) <= 100
 c279: - C70(3) <= -0
 c280: C71(3) <= 200
 c281: - C71(3) <= -10
 c282: C122(3) <= 150
 c283: - C122(3) <= -10
 c284: C123(3) <= 100
 c285: - C123(3) <= -0
 c286: C124(3) <= 200
 c287: - C124(3) <= -10
 c288: C175(3) <= 150
 c289: - C175(3) <= -10
 c290: C176(3) <= 100
 c291: - C176(3) <= -0
 c292: C177(3) <= 200
 c293: - C177(3) <= -10
 c294: C228(3) <= 150
 c295: - C228(3) <= -10
 c296: C229(3) <= 100
 c297: - C229(3) <= -0
 c298: C230(3) <= 200
 c299: - C230(3) <= -10
 c300: C0(8) - 70000 B8(12) - C37(6) <= 0
 c301: - C0(8) - 70000 B8(12) + C37(6) <= 0
 c302: C1(8) - 70000 B9(12) - C38(6) <= 0
 c303: - C1(8) - 70000 B9(12) + C38(6) <= 0
 c304: C2(8) - 70000 B10(12) - C39(6) <= 0
 c305: - C2(8) - 70000 B10(12) + C39(6) <= 0
 c306: C3(8) - 70000 B11(12) - C40(6) <= 0
 c307: - C3(8) - 70000 B11(12) + C40(6) <= 0
 c308: C4(8) - 70000 B12(12) - C41(6) <= 0
 c309: - C4(8) - 70000 B12(12) + C41(6) <= 0
 c310: C5(8) - 70000 B13(12) - C42(6) <= 0
 c311: - C5(8) - 70000 B13(12) + C42(6) <= 0
 c312: C6(8) - 70000 B14(12) - C43(6) <= 0
 c313: - C6(8) - 70000 B14(12) + C43(6) <= 0
 c314: C7(8) - 70000 B15(12) - C44(6) <= 0
 c315: - C7(8) - 70000 B15(12) + C44(6) <= 0
 c316: C53(8) - 70000 B61(12) - C90(6) <= 0
 c317: - C53(8) - 70000 B61(12) + C90(6) <= 0
 c318: C54(8) - 70000 B62(12) - C91(6) <= 0
 c319: - C54(8) - 70000 B62(12) + C91(6) <= 0
 c320: C55(8) - 70000 B63(12) - C92(6) <= 0
 c321: - C55(8) - 70000 B63(12) + C92(6) <= 0
 c322: C56(8) - 70000 B64(12) - C93(6) <= 0
 c323: - C56(8) - 70000 B64(12) + C93(6) <= 0
 c324: C57(8) - 70000 B65(12) - C94(6) <= 0
 c325: - C57(8) - 70000 B65(12) + C94(6) <= 0
 c326: C58(8) - 70000 B66(12) - C95(6) <= 0
 c327: - C58(8) - 70000 B66(12) + C95(6) <= 0
 c328: C59(8) - 70000 B67(12) - C96(6) <= 0
 c329: - C59(8) - 70000 B67(12) + C96(6) <= 0
 c330: C60(8) - 70000 B68(12) - C97(6) <= 0
 c331: - C60(8) - 70000 B68(12) + C97(6) <= 0
 c332: C106(8) - 70000 B114(12) - C143(6) <= 0
 c333: - C106(8) - 70000 B114(12) + C143(6) <= 0
 c334: C107(8) - 70000 B115(12) - C144(6) <= 0
 c335: - C107(8) - 70000 B115(12) + C144(6) <= 0
 c336: C108(8) - 70000 B116(12) - C145(6) <= 0
 c337: - C108(8) - 70000 B116(12) + C145(6) <= 0
 c338: C109(8) - 70000 B117(12) - C146(6) <= 0
 c339: - C109(8) - 70000 B117(12) + C146(6) <= 0
 c340: C110(8) - 70000 B118(12) - C147(6) <= 0
 c341: - C110(8) - 70000 B118(12) + C147(6) <= 0
 c342: C111(8) - 70000 B119(12) - C148(6) <= 0
 c343: - C111(8) - 70000 B119(12) + C148(6) <= 0
 c344: C112(8) - 70000 B120(12) - C149(6) <= 0
 c345: - C112(8) - 70000 B120(12) + C149(6) <= 0
 c346: C113(8) - 70000 B121(12) - C150(6) <= 0
 c347: - C113(8) - 70000 B121(12) + C150(6) <= 0
 c348: C159(8) - 70000 B167(12) - C196(6) <= 0
 c349: - C159(8) - 70000 B167(12) + C196(6) <= 0
 c350: C160(8) - 70000 B168(12) - C197(6) <= 0
 c351: - C160(8) - 70000 B168(12) + C197(6) <= 0
 c352: C161(8) - 70000 B169(12) - C198(6) <= 0
 c353: - C161(8) - 70000 B169(12) + C198(6) <= 0
 c354: C162(8) - 70000 B170(12) - C199(6) <= 0
 c355: - C162(8) - 70000 B170(12) + C199(6) <= 0
 c356: C163(8) - 70000 B171(12) - C200(6) <= 0
 c357: - C163(8) - 70000 B171(12) + C200(6) <= 0
 c358: C164(8) - 70000 B172(12) - C201(6) <= 0
 c359: - C164(8) - 70000 B172(12) + C201(6) <= 0
 c360: C165(8) - 70000 B173(12) - C202(6) <= 0
 c361: - C165(8) - 70000 B173(12) + C202(6) <= 0
 c362: C166(8) - 70000 B174(12) - C203(6) <= 0
 c363: - C166(8) - 70000 B174(12) + C203(6) <= 0
 c364: C212(8) - 70000 B220(10) - C249(6) <= 0
 c365: - C212(8) - 70000 B220(10) + C249(6) <= 0
 c366: C213(8) - 70000 B221(10) - C250(6) <= 0
 c367: - C213(8) - 70000 B221(10) + C250(6) <= 0
 c368: C214(8) - 70000 B222(10) - C251(6) <= 0
 c369: - C214(8) - 70000 B222(10) + C251(6) <= 0
 c370: C215(8) - 70000 B223(10) - C252(6) <= 0
 c371: - C215(8) - 70000 B223(10) + C252(6) <= 0
 c372: C216(8) - 70000 B224(10) - C253(6) <= 0
 c373: - C216(8) - 70000 B224(10) + C253(6) <= 0
 c374: C217(8) - 70000 B225(10) - C254(6) <= 0
 c375: - C217(8) - 70000 B225(10) + C254(6) <= 0
 c376: C218(8) - 70000 B226(10) - C255(6) <= 0
 c377: - C218(8) - 70000 B226(10) + C255(6) <= 0
 c378: C219(8) - 70000 B227(10) - C256(6) <= 0
 c379: - C219(8) - 70000 B227(10) + C256(6) <= 0
 c380: 70000 B8(12) + C37(6) <= 70000
 c381: 70000 B8(12) - C37(6) <= 70000
 c382: 70000 B9(12) + C38(6) <= 70000
 c383: 70000 B9(12) - C38(6) <= 70000
 c384: 70000 B10(12) + C39(6) <= 70000
 c385: 70000 B10(12) - C39(6) <= 70000
 c386: 70000 B11(12) + C40(6) <= 70000
 c387: 70000 B11(12) - C40(6) <= 70000
 c388: 70000 B12(12) + C41(6) <= 70000
 c389: 70000 B12(12) - C41(6) <= 70000
 c390: 70000 B13(12) + C42(6) <= 70000
 c391: 70000 B13(12) - C42(6) <= 70000
 c392: 70000 B14(12) + C43(6) <= 70000
 c393: 70000 B14(12) - C43(6) <= 70000
 c394: 70000 B15(12) + C44(6) <= 70000
 c395: 70000 B15(12) - C44(6) <= 70000
 c396: 70000 B61(12) + C90(6) <= 70000
 c397: 70000 B61(12) - C90(6) <= 70000
 c398: 70000 B62(12) + C91(6) <= 70000
 c399: 70000 B62(12) - C91(6) <= 70000
 c400: 70000 B63(12) + C92(6) <= 70000
 c401: 70000 B63(12) - C92(6) <= 70000
 c402: 70000 B64(12) + C93(6) <= 70000
 c403: 70000 B64(12) - C93(6) <= 70000
 c404: 70000 B65(12) + C94(6) <= 70000
 c405: 70000 B65(12) - C94(6) <= 70000
 c406: 70000 B66(12) + C95(6) <= 70000
 c407: 70000 B66(12) - C95(6) <= 70000
 c408: 70000 B67(12) + C96(6) <= 70000
 c409: 70000 B67(12) - C96(6) <= 70000
 c410: 70000 B68(12) + C97(6) <= 70000
 c411: 70000 B68(12) - C97(6) <= 70000
 c412: 70000 B114(12) + C143(6) <= 70000
 c413: 70000 B114(12) - C143(6) <= 70000
 c414: 70000 B115(12) + C144(6) <= 70000
 c415: 70000 B115(12) - C144(6) <= 70000
 c416: 70000 B116(12) + C145(6) <= 70000
 c417: 70000 B116(12) - C145(6) <= 70000
 c418: 70000 B117(12) + C146(6) <= 70000
 c419: 70000 B117(12) - C146(6) <= 70000
 c420: 70000 B118(12) + C147(6) <= 70000
 c421: 70000 B118(12) - C147(6) <= 70000
 c422: 70000 B119(12) + C148(6) <= 70000
 c423: 70000 B119(12) - C148(6) <= 70000
 c424: 70000 B120(12) + C149(6) <= 70000
 c425: 70000 B120(12) - C149(6) <= 70000
 c426: 70000 B121(12) + C150(6) <= 70000
 c427: 70000 B121(12) - C150(6) <= 70000
 c428: 70000 B167(12) + C196(6) <= 70000
 c429: 70000 B167(12) - C196(6) <= 70000
 c430: 70000 B168(12) + C197(6) <= 70000
 c431: 70000 B168(12) - C197(6) <= 70000
 c432: 70000 B169(12) + C198(6) <= 70000
 c433: 70000 B169(12) - C198(6) <= 70000
 c434: 70000 B170(12) + C199(6) <= 70000
 c435: 70000 B170(12) - C199(6) <= 70000
 c436: 70000 B171(12) + C200(6) <= 70000
 c437: 70000 B171(12) - C200(6) <= 70000
 c438: 70000 B172(12) + C201(6) <= 70000
 c439: 70000 B172(12) - C201(6) <= 70000
 c440: 70000 B173(12) + C202(6) <= 70000
 c441: 70000 B173(12) - C202(6) <= 70000
 c442: 70000 B174(12) + C203(6) <= 70000
 c443: 70000 B174(12) - C203(6) <= 70000
 c444: 70000 B220(10) + C249(6) <= 70000
 c445: 70000 B220(10) - C249(6) <= 70000
 c446: 70000 B221(10) + C250(6) <= 70000
 c447: 70000 B221(10) - C250(6) <= 70000
 c448: 70000 B222(10) + C251(6) <= 70000
 c449: 70000 B222(10) - C251(6) <= 70000
 c450: 70000 B223(10) + C252(6) <= 70000
 c451: 70000 B223(10) - C252(6) <= 70000
 c452: 70000 B224(10) + C253(6) <= 70000
 c453: 70000 B224(10) - C253(6) <= 70000
 c454: 70000 B225(10) + C254(6) <= 70000
 c455: 70000 B225(10) - C254(6) <= 70000
 c456: 70000 B226(10) + C255(6) <= 70000
 c457: 70000 B226(10) - C255(6) <= 70000
 c458: 70000 B227(10) + C256(6) <= 70000
 c459: 70000 B227(10) - C256(6) <= 70000
Bounds
 C0(8) free
 C1(8) free
 C2(8) free
 C3(8) free
 C4(8) free
 C5(8) free
 C6(8) free
 C7(8) free
 C31(6) free
 C32(4) free
 C33(6) free
 C34(4) free
 C35(6) free
 C36(6) free
 C37(6) free
 C38(6) free
 C39(6) free
 C40(6) free
 C41(6) free
 C42(6) free
 C43(6) free
 C44(6) free
 C53(8) free
 C54(8) free
 C55(8) free
 C56(8) free
 C57(8) free
 C58(8) free
 C59(8) free
 C60(8) free
 C84(6) free
 C85(4) free
 C86(6) free
 C87(4) free
 C88(6) free
 C89(6) free
 C90(6) free
 C91(6) free
 C92(6) free
 C93(6) free
 C94(6) free
 C95(6) free
 C96(6) free
 C97(6) free
 C106(8) free
 C107(8) free
 C108(8) free
 C109(8) free
 C110(8) free
 C111(8) free
 C112(8) free
 C113(8) free
 C137(6) free
 C138(4) free
 C139(6) free
 C140(4) free
 C141(6) free
 C142(6) free
 C143(6) free
 C144(6) free
 C145(6) free
 C146(6) free
 C147(6) free
 C148(6) free
 C149(6) free
 C150(6) free
 C159(8) free
 C160(8) free
 C161(8) free
 C162(8) free
 C163(8) free
 C164(8) free
 C165(8) free
 C166(8) free
 C190(6) free
 C191(4) free
 C192(6) free
 C193(4) free
 C194(6) free
 C195(6) free
 C196(6) free
 C197(6) free
 C198(6) free
 C199(6) free
 C200(6) free
 C201(6) free
 C202(6) free
 C203(6) free
 C212(8) free
 C213(8) free
 C214(8) free
 C215(8) free
 C216(8) free
 C217(8) free
 C218(8) free
 C219(8) free
 C243(6) free
 C244(4) free
 C245(6) free
 C246(4) free
 C247(6) free
 C248(6) free
 C249(6) free
 C250(6) free
 C251(6) free
 C252(6) free
 C253(6) free
 C254(6) free
 C255(6) free
 C256(6) free
Binaries
 B8(12) B9(12) B10(12) B11(12) B12(12) B13(12) B14(12) B15(12) B45(1)
 B46(1) B47(1) B48(1) B49(1) B50(1) B51(1) B52(1) B61(12) B62(12) B63(12)
 B64(12) B65(12) B66(12) B67(12) B68(12) B98(1) B99(1) B100(1) B101(1)
 B102(1) B103(1) B104(1) B105(1) B114(12) B115(12) B116(12) B117(12)
 B118(12) B119(12) B120(12) B121(12) B151(1) B152(1) B153(1) B154(1)
 B155(1) B156(1) B157(1) B158(1) B167(12) B168(12) B169(12) B170(12)
 B171(12) B172(12) B173(12) B174(12) B204(1) B205(1) B206(1) B207(1)
 B208(1) B209(1) B210(1) B211(1) B220(10) B221(10) B222(10) B223(10)
 B224(10) B225(10) B226(10) B227(10) B257(1) B258(1) B259(1) B260(1)
 B261(1) B262(1) B263(1) B264(1)
End
